c description: Random 3-CNF over 15 variables and 15 clauses
c generator: CNFgen (0.9.0)
c copyright: (C) 2012-2020 Massimo Lauria <massimo.lauria@uniroma1.it>
c url: https://massimolauria.net/cnfgen
c
p cnf 15 15
3 -5 -6 0
8 -13 -15 0
3 -6 14 0
-8 10 -15 0
-5 -7 8 0
5 -14 -15 0
9 -10 11 0
7 10 12 0
5 6 8 0
6 -13 14 0
-6 10 -12 0
-1 3 -13 0
5 -11 -12 0
3 6 13 0
-6 -11 -15 0